(set-logic QF_BV)

(declare-const __ESBMC_ptr_obj_start_0 (_ BitVec 64))

(declare-const __ESBMC_ptr_obj_end_0 (_ BitVec 64))

(declare-const __ESBMC_ptr_obj_start_1 (_ BitVec 64))

(declare-const __ESBMC_ptr_obj_end_1 (_ BitVec 64))

(declare-const |smt_conv::__ESBMC_ptr_addr_range_0..start0| (_ BitVec 64))

(declare-const |smt_conv::__ESBMC_ptr_addr_range_0..end0| (_ BitVec 64))

(declare-const |smt_conv::__ESBMC_ptr_addr_range_1..start0| (_ BitVec 64))

(declare-const |smt_conv::__ESBMC_ptr_addr_range_1..end0| (_ BitVec 64))

(declare-const |smt_conv::smt_conv::collate_array_vals::3..start0| (_ BitVec 64))

(declare-const |smt_conv::smt_conv::collate_array_vals::3..end0| (_ BitVec 64))

(declare-const |smt_conv::smt_conv::collate_array_vals::4..start0| (_ BitVec 64))

(declare-const |smt_conv::smt_conv::collate_array_vals::4..end0| (_ BitVec 64))

(declare-const |smt_conv::smt_conv::collate_array_vals::7..start0| (_ BitVec 64))

(declare-const |smt_conv::smt_conv::collate_array_vals::7..end0| (_ BitVec 64))

(declare-const |c:AliasDarteFeautrierGonnord-SAS2010-wcet2.c@351@F@main@i?1!0&0#1| (_ BitVec 32))

(declare-const |nondet$symex::nondet44| (_ BitVec 32))

(declare-const |goto_symex::guard?0!0&0#1| (_ BitVec 1))

(declare-const |c:AliasDarteFeautrierGonnord-SAS2010-wcet2.c@351@F@main@i?1!0&0#2| (_ BitVec 32))

(declare-const |goto_symex::guard?0!0&0#12| (_ BitVec 1))

(declare-const |c:AliasDarteFeautrierGonnord-SAS2010-wcet2.c@351@F@main@i?1!0&0#3| (_ BitVec 32))

(declare-const |goto_symex::guard?0!0&0#23| (_ BitVec 1))

(declare-const |c:AliasDarteFeautrierGonnord-SAS2010-wcet2.c@351@F@main@i?1!0&0#4| (_ BitVec 32))

(declare-const |goto_symex::guard?0!0&0#34| (_ BitVec 1))

(declare-const |c:AliasDarteFeautrierGonnord-SAS2010-wcet2.c@351@F@main@i?1!0&0#5| (_ BitVec 32))

(declare-const |goto_symex::guard?0!0&0#45| (_ BitVec 1))

(declare-const |c:AliasDarteFeautrierGonnord-SAS2010-wcet2.c@351@F@main@i?1!0&0#6| (_ BitVec 32))

(declare-const |goto_symex::guard?0!0&0#56| (_ BitVec 1))

(declare-const |c:AliasDarteFeautrierGonnord-SAS2010-wcet2.c@351@F@main@i?1!0&0#7| (_ BitVec 32))

(declare-const |goto_symex::guard?0!0&0#67| (_ BitVec 1))

(declare-const |c:AliasDarteFeautrierGonnord-SAS2010-wcet2.c@351@F@main@i?1!0&0#8| (_ BitVec 32))

(declare-const |goto_symex::guard?0!0&0#78| (_ BitVec 1))

(declare-const |c:AliasDarteFeautrierGonnord-SAS2010-wcet2.c@351@F@main@i?1!0&0#9| (_ BitVec 32))

(declare-const |goto_symex::guard?0!0&0#89| (_ BitVec 1))

(declare-const |c:AliasDarteFeautrierGonnord-SAS2010-wcet2.c@351@F@main@i?1!0&0#10| (_ BitVec 32))

(declare-const |goto_symex::guard?0!0&0#100| (_ BitVec 1))

(declare-const |c:AliasDarteFeautrierGonnord-SAS2010-wcet2.c@351@F@main@i?1!0&0#11| (_ BitVec 32))

(declare-const |goto_symex::guard?0!0&0#111| (_ BitVec 1))

(declare-const |c:AliasDarteFeautrierGonnord-SAS2010-wcet2.c@351@F@main@i?1!0&0#12| (_ BitVec 32))

(declare-const |goto_symex::guard?0!0&0#122| (_ BitVec 1))

(declare-const |c:AliasDarteFeautrierGonnord-SAS2010-wcet2.c@351@F@main@i?1!0&0#13| (_ BitVec 32))

(declare-const |goto_symex::guard?0!0&0#133| (_ BitVec 1))

(declare-const |c:AliasDarteFeautrierGonnord-SAS2010-wcet2.c@351@F@main@i?1!0&0#14| (_ BitVec 32))

(declare-const |goto_symex::guard?0!0&0#144| (_ BitVec 1))

(declare-const |c:AliasDarteFeautrierGonnord-SAS2010-wcet2.c@351@F@main@i?1!0&0#15| (_ BitVec 32))

(declare-const |goto_symex::guard?0!0&0#155| (_ BitVec 1))

(declare-const |c:AliasDarteFeautrierGonnord-SAS2010-wcet2.c@351@F@main@i?1!0&0#16| (_ BitVec 32))

(declare-const |goto_symex::guard?0!0&0#166| (_ BitVec 1))

(declare-const |c:AliasDarteFeautrierGonnord-SAS2010-wcet2.c@351@F@main@i?1!0&0#17| (_ BitVec 32))

(declare-const |goto_symex::guard?0!0&0#177| (_ BitVec 1))

(declare-const |c:AliasDarteFeautrierGonnord-SAS2010-wcet2.c@351@F@main@i?1!0&0#18| (_ BitVec 32))

(declare-const |goto_symex::guard?0!0&0#188| (_ BitVec 1))

(declare-const |c:AliasDarteFeautrierGonnord-SAS2010-wcet2.c@351@F@main@i?1!0&0#19| (_ BitVec 32))

(declare-const |goto_symex::guard?0!0&0#199| (_ BitVec 1))

(declare-const |c:AliasDarteFeautrierGonnord-SAS2010-wcet2.c@351@F@main@i?1!0&0#20| (_ BitVec 32))

(declare-const |goto_symex::guard?0!0&0#210| (_ BitVec 1))

(declare-const |c:AliasDarteFeautrierGonnord-SAS2010-wcet2.c@351@F@main@i?1!0&0#21| (_ BitVec 32))

(declare-const |goto_symex::guard?0!0&0#221| (_ BitVec 1))

(declare-const |c:AliasDarteFeautrierGonnord-SAS2010-wcet2.c@351@F@main@i?1!0&0#22| (_ BitVec 32))

(declare-const |goto_symex::guard?0!0&0#232| (_ BitVec 1))

(declare-const |c:AliasDarteFeautrierGonnord-SAS2010-wcet2.c@351@F@main@i?1!0&0#23| (_ BitVec 32))

(declare-const |goto_symex::guard?0!0&0#243| (_ BitVec 1))

(declare-const |execution_statet::guard_exec?0!0| (_ BitVec 1))

(assert 

 (= __ESBMC_ptr_obj_start_0 #b0000000000000000000000000000000000000000000000000000000000000000))

(assert 

 (= #b0000000000000000000000000000000000000000000000000000000000000000 __ESBMC_ptr_obj_end_0))

(assert 

 (= __ESBMC_ptr_obj_start_1 #b0000000000000000000000000000000000000000000000000000000000000001))

(assert 

 (= #b1111111111111111111111111111111111111111111111111111111111111111 __ESBMC_ptr_obj_end_1))

(assert 

 (= __ESBMC_ptr_obj_end_0 |smt_conv::__ESBMC_ptr_addr_range_0..end0|))

(assert 

 (= __ESBMC_ptr_obj_start_0 |smt_conv::__ESBMC_ptr_addr_range_0..start0|))

(assert 

 (= __ESBMC_ptr_obj_end_1 |smt_conv::__ESBMC_ptr_addr_range_1..end0|))

(assert 

 (= __ESBMC_ptr_obj_start_1 |smt_conv::__ESBMC_ptr_addr_range_1..start0|))

(assert 

 (= |smt_conv::smt_conv::collate_array_vals::3..end0| |smt_conv::smt_conv::collate_array_vals::4..end0|))

(assert 

 (= |smt_conv::smt_conv::collate_array_vals::3..start0| |smt_conv::smt_conv::collate_array_vals::4..start0|))

(assert 

 (= __ESBMC_ptr_obj_end_0 |smt_conv::smt_conv::collate_array_vals::7..end0|))

(assert 

 (= __ESBMC_ptr_obj_start_0 |smt_conv::smt_conv::collate_array_vals::7..start0|))

(assert 

 (= |c:AliasDarteFeautrierGonnord-SAS2010-wcet2.c@351@F@main@i?1!0&0#1| |nondet$symex::nondet44|))

(assert 

 (= |goto_symex::guard?0!0&0#1| 

  (ite 

   (bvslt |c:AliasDarteFeautrierGonnord-SAS2010-wcet2.c@351@F@main@i?1!0&0#1| #b00000000000000000000000000000101) #b1 #b0)))

(assert 

 (= |c:AliasDarteFeautrierGonnord-SAS2010-wcet2.c@351@F@main@i?1!0&0#2| 

  (bvadd |c:AliasDarteFeautrierGonnord-SAS2010-wcet2.c@351@F@main@i?1!0&0#1| #b00000000000000000000000000000001)))

(assert 

 (= |goto_symex::guard?0!0&0#12| 

  (ite 

   (bvslt |c:AliasDarteFeautrierGonnord-SAS2010-wcet2.c@351@F@main@i?1!0&0#2| #b00000000000000000000000000000101) #b1 #b0)))

(assert 

 (= |c:AliasDarteFeautrierGonnord-SAS2010-wcet2.c@351@F@main@i?1!0&0#3| 

  (bvadd |c:AliasDarteFeautrierGonnord-SAS2010-wcet2.c@351@F@main@i?1!0&0#2| #b00000000000000000000000000000001)))

(assert 

 (= |goto_symex::guard?0!0&0#23| 

  (ite 

   (bvslt |c:AliasDarteFeautrierGonnord-SAS2010-wcet2.c@351@F@main@i?1!0&0#3| #b00000000000000000000000000000101) #b1 #b0)))

(assert 

 (= |c:AliasDarteFeautrierGonnord-SAS2010-wcet2.c@351@F@main@i?1!0&0#4| 

  (bvadd #b00000000000000000000000000000001 |c:AliasDarteFeautrierGonnord-SAS2010-wcet2.c@351@F@main@i?1!0&0#3|)))

(assert 

 (= |goto_symex::guard?0!0&0#34| 

  (ite 

   (bvslt |c:AliasDarteFeautrierGonnord-SAS2010-wcet2.c@351@F@main@i?1!0&0#4| #b00000000000000000000000000000101) #b1 #b0)))

(assert 

 (= |c:AliasDarteFeautrierGonnord-SAS2010-wcet2.c@351@F@main@i?1!0&0#5| 

  (bvadd #b00000000000000000000000000000001 |c:AliasDarteFeautrierGonnord-SAS2010-wcet2.c@351@F@main@i?1!0&0#4|)))

(assert 

 (= |goto_symex::guard?0!0&0#45| 

  (ite 

   (bvslt |c:AliasDarteFeautrierGonnord-SAS2010-wcet2.c@351@F@main@i?1!0&0#5| #b00000000000000000000000000000101) #b1 #b0)))

(assert 

 (= |c:AliasDarteFeautrierGonnord-SAS2010-wcet2.c@351@F@main@i?1!0&0#6| 

  (bvadd #b00000000000000000000000000000001 |c:AliasDarteFeautrierGonnord-SAS2010-wcet2.c@351@F@main@i?1!0&0#5|)))

(assert 

 (= |goto_symex::guard?0!0&0#56| 

  (ite 

   (bvslt |c:AliasDarteFeautrierGonnord-SAS2010-wcet2.c@351@F@main@i?1!0&0#6| #b00000000000000000000000000000101) #b1 #b0)))

(assert 

 (= |c:AliasDarteFeautrierGonnord-SAS2010-wcet2.c@351@F@main@i?1!0&0#7| 

  (bvadd #b00000000000000000000000000000001 |c:AliasDarteFeautrierGonnord-SAS2010-wcet2.c@351@F@main@i?1!0&0#6|)))

(assert 

 (= |goto_symex::guard?0!0&0#67| 

  (ite 

   (bvslt |c:AliasDarteFeautrierGonnord-SAS2010-wcet2.c@351@F@main@i?1!0&0#7| #b00000000000000000000000000000101) #b1 #b0)))

(assert 

 (= |c:AliasDarteFeautrierGonnord-SAS2010-wcet2.c@351@F@main@i?1!0&0#8| 

  (bvadd #b00000000000000000000000000000001 |c:AliasDarteFeautrierGonnord-SAS2010-wcet2.c@351@F@main@i?1!0&0#7|)))

(assert 

 (= |goto_symex::guard?0!0&0#78| 

  (ite 

   (bvslt |c:AliasDarteFeautrierGonnord-SAS2010-wcet2.c@351@F@main@i?1!0&0#8| #b00000000000000000000000000000101) #b1 #b0)))

(assert 

 (= |c:AliasDarteFeautrierGonnord-SAS2010-wcet2.c@351@F@main@i?1!0&0#9| 

  (bvadd #b00000000000000000000000000000001 |c:AliasDarteFeautrierGonnord-SAS2010-wcet2.c@351@F@main@i?1!0&0#8|)))

(assert 

 (= |goto_symex::guard?0!0&0#89| 

  (ite 

   (bvslt |c:AliasDarteFeautrierGonnord-SAS2010-wcet2.c@351@F@main@i?1!0&0#9| #b00000000000000000000000000000101) #b1 #b0)))

(assert 

 (= |c:AliasDarteFeautrierGonnord-SAS2010-wcet2.c@351@F@main@i?1!0&0#10| 

  (bvadd #b00000000000000000000000000000001 |c:AliasDarteFeautrierGonnord-SAS2010-wcet2.c@351@F@main@i?1!0&0#9|)))

(assert 

 (= |goto_symex::guard?0!0&0#100| 

  (ite 

   (bvslt |c:AliasDarteFeautrierGonnord-SAS2010-wcet2.c@351@F@main@i?1!0&0#10| #b00000000000000000000000000000101) #b1 #b0)))

(assert 

 (= |c:AliasDarteFeautrierGonnord-SAS2010-wcet2.c@351@F@main@i?1!0&0#11| 

  (bvadd #b00000000000000000000000000000001 |c:AliasDarteFeautrierGonnord-SAS2010-wcet2.c@351@F@main@i?1!0&0#10|)))

(assert 

 (= |goto_symex::guard?0!0&0#111| 

  (ite 

   (bvslt |c:AliasDarteFeautrierGonnord-SAS2010-wcet2.c@351@F@main@i?1!0&0#11| #b00000000000000000000000000000101) #b1 #b0)))

(assert 

 (= |c:AliasDarteFeautrierGonnord-SAS2010-wcet2.c@351@F@main@i?1!0&0#12| 

  (bvadd #b00000000000000000000000000000001 |c:AliasDarteFeautrierGonnord-SAS2010-wcet2.c@351@F@main@i?1!0&0#11|)))

(assert 

 (= |goto_symex::guard?0!0&0#122| 

  (ite 

   (bvslt |c:AliasDarteFeautrierGonnord-SAS2010-wcet2.c@351@F@main@i?1!0&0#12| #b00000000000000000000000000000101) #b1 #b0)))

(assert 

 (= |c:AliasDarteFeautrierGonnord-SAS2010-wcet2.c@351@F@main@i?1!0&0#13| 

  (bvadd #b00000000000000000000000000000001 |c:AliasDarteFeautrierGonnord-SAS2010-wcet2.c@351@F@main@i?1!0&0#12|)))

(assert 

 (= |goto_symex::guard?0!0&0#133| 

  (ite 

   (bvslt |c:AliasDarteFeautrierGonnord-SAS2010-wcet2.c@351@F@main@i?1!0&0#13| #b00000000000000000000000000000101) #b1 #b0)))

(assert 

 (= |c:AliasDarteFeautrierGonnord-SAS2010-wcet2.c@351@F@main@i?1!0&0#14| 

  (bvadd #b00000000000000000000000000000001 |c:AliasDarteFeautrierGonnord-SAS2010-wcet2.c@351@F@main@i?1!0&0#13|)))

(assert 

 (= |goto_symex::guard?0!0&0#144| 

  (ite 

   (bvslt |c:AliasDarteFeautrierGonnord-SAS2010-wcet2.c@351@F@main@i?1!0&0#14| #b00000000000000000000000000000101) #b1 #b0)))

(assert 

 (= |c:AliasDarteFeautrierGonnord-SAS2010-wcet2.c@351@F@main@i?1!0&0#15| 

  (bvadd #b00000000000000000000000000000001 |c:AliasDarteFeautrierGonnord-SAS2010-wcet2.c@351@F@main@i?1!0&0#14|)))

(assert 

 (= |goto_symex::guard?0!0&0#155| 

  (ite 

   (bvslt |c:AliasDarteFeautrierGonnord-SAS2010-wcet2.c@351@F@main@i?1!0&0#15| #b00000000000000000000000000000101) #b1 #b0)))

(assert 

 (= |c:AliasDarteFeautrierGonnord-SAS2010-wcet2.c@351@F@main@i?1!0&0#16| 

  (bvadd #b00000000000000000000000000000001 |c:AliasDarteFeautrierGonnord-SAS2010-wcet2.c@351@F@main@i?1!0&0#15|)))

(assert 

 (= |goto_symex::guard?0!0&0#166| 

  (ite 

   (bvslt |c:AliasDarteFeautrierGonnord-SAS2010-wcet2.c@351@F@main@i?1!0&0#16| #b00000000000000000000000000000101) #b1 #b0)))

(assert 

 (= |c:AliasDarteFeautrierGonnord-SAS2010-wcet2.c@351@F@main@i?1!0&0#17| 

  (bvadd #b00000000000000000000000000000001 |c:AliasDarteFeautrierGonnord-SAS2010-wcet2.c@351@F@main@i?1!0&0#16|)))

(assert 

 (= |goto_symex::guard?0!0&0#177| 

  (ite 

   (bvslt |c:AliasDarteFeautrierGonnord-SAS2010-wcet2.c@351@F@main@i?1!0&0#17| #b00000000000000000000000000000101) #b1 #b0)))

(assert 

 (= |c:AliasDarteFeautrierGonnord-SAS2010-wcet2.c@351@F@main@i?1!0&0#18| 

  (bvadd #b00000000000000000000000000000001 |c:AliasDarteFeautrierGonnord-SAS2010-wcet2.c@351@F@main@i?1!0&0#17|)))

(assert 

 (= |goto_symex::guard?0!0&0#188| 

  (ite 

   (bvslt |c:AliasDarteFeautrierGonnord-SAS2010-wcet2.c@351@F@main@i?1!0&0#18| #b00000000000000000000000000000101) #b1 #b0)))

(assert 

 (= |c:AliasDarteFeautrierGonnord-SAS2010-wcet2.c@351@F@main@i?1!0&0#19| 

  (bvadd #b00000000000000000000000000000001 |c:AliasDarteFeautrierGonnord-SAS2010-wcet2.c@351@F@main@i?1!0&0#18|)))

(assert 

 (= |goto_symex::guard?0!0&0#199| 

  (ite 

   (bvslt |c:AliasDarteFeautrierGonnord-SAS2010-wcet2.c@351@F@main@i?1!0&0#19| #b00000000000000000000000000000101) #b1 #b0)))

(assert 

 (= |c:AliasDarteFeautrierGonnord-SAS2010-wcet2.c@351@F@main@i?1!0&0#20| 

  (bvadd #b00000000000000000000000000000001 |c:AliasDarteFeautrierGonnord-SAS2010-wcet2.c@351@F@main@i?1!0&0#19|)))

(assert 

 (= |goto_symex::guard?0!0&0#210| 

  (ite 

   (bvslt |c:AliasDarteFeautrierGonnord-SAS2010-wcet2.c@351@F@main@i?1!0&0#20| #b00000000000000000000000000000101) #b1 #b0)))

(assert 

 (= |c:AliasDarteFeautrierGonnord-SAS2010-wcet2.c@351@F@main@i?1!0&0#21| 

  (bvadd #b00000000000000000000000000000001 |c:AliasDarteFeautrierGonnord-SAS2010-wcet2.c@351@F@main@i?1!0&0#20|)))

(assert 

 (= |goto_symex::guard?0!0&0#221| 

  (ite 

   (bvslt |c:AliasDarteFeautrierGonnord-SAS2010-wcet2.c@351@F@main@i?1!0&0#21| #b00000000000000000000000000000101) #b1 #b0)))

(assert 

 (= |c:AliasDarteFeautrierGonnord-SAS2010-wcet2.c@351@F@main@i?1!0&0#22| 

  (bvadd #b00000000000000000000000000000001 |c:AliasDarteFeautrierGonnord-SAS2010-wcet2.c@351@F@main@i?1!0&0#21|)))

(assert 

 (= |goto_symex::guard?0!0&0#232| 

  (ite 

   (bvslt |c:AliasDarteFeautrierGonnord-SAS2010-wcet2.c@351@F@main@i?1!0&0#22| #b00000000000000000000000000000101) #b1 #b0)))

(assert 

 (= |c:AliasDarteFeautrierGonnord-SAS2010-wcet2.c@351@F@main@i?1!0&0#23| 

  (bvadd #b00000000000000000000000000000001 |c:AliasDarteFeautrierGonnord-SAS2010-wcet2.c@351@F@main@i?1!0&0#22|)))

(assert 

 (= |goto_symex::guard?0!0&0#243| 

  (ite 

   (bvslt |c:AliasDarteFeautrierGonnord-SAS2010-wcet2.c@351@F@main@i?1!0&0#23| #b00000000000000000000000000000101) #b1 #b0)))

(assert (= |execution_statet::guard_exec?0!0| #b1))

(assert (= |goto_symex::guard?0!0&0#243| #b1))

(assert (= |goto_symex::guard?0!0&0#232| #b1))

(assert (= |goto_symex::guard?0!0&0#221| #b1))

(assert (= |goto_symex::guard?0!0&0#210| #b1))

(assert (= |goto_symex::guard?0!0&0#199| #b1))

(assert (= |goto_symex::guard?0!0&0#188| #b1))

(assert (= |goto_symex::guard?0!0&0#177| #b1))

(assert (= |goto_symex::guard?0!0&0#166| #b1))

(assert (= |goto_symex::guard?0!0&0#155| #b1))

(assert (= |goto_symex::guard?0!0&0#144| #b1))

(assert (= |goto_symex::guard?0!0&0#133| #b1))

(assert (= |goto_symex::guard?0!0&0#122| #b1))

(assert (= |goto_symex::guard?0!0&0#111| #b1))

(assert (= |goto_symex::guard?0!0&0#100| #b1))

(assert (= |goto_symex::guard?0!0&0#89| #b1))

(assert (= |goto_symex::guard?0!0&0#78| #b1))

(assert (= |goto_symex::guard?0!0&0#67| #b1))

(assert (= |goto_symex::guard?0!0&0#56| #b1))

(assert (= |goto_symex::guard?0!0&0#45| #b1))

(assert (= |goto_symex::guard?0!0&0#34| #b1))

(assert (= |goto_symex::guard?0!0&0#23| #b1))

(assert (= |goto_symex::guard?0!0&0#12| #b1))

(assert (= |goto_symex::guard?0!0&0#1| #b1))

(check-sat)

(exit)
